\ENCODING=ISO-8859-1
\Problem name: ilog.cplex

Minimize
 obj:
Subject To
 c1:  x(0,1,0,0,3,0)(0) + x(0,1,0,0,3,0)(1) + x(0,1,0,0,3,0)(2)
      + x(0,1,0,0,3,0)(3)  = 100
 c2:  x(0,1,0,2,2,0)(0) + x(0,1,0,2,2,0)(1) + x(0,1,0,2,2,0)(2)
      + x(0,1,0,2,2,0)(3)  = 107
 c3:  x(0,1,0,2,5,3)(0) + x(0,1,0,2,5,3)(1) + x(0,1,0,2,5,3)(2)
      + x(0,1,0,2,5,3)(3)  = 335
 c4:  x(0,1,0,0,3,0)(0) - xNG(0,1,0,0,3,0)  = 0
 c5:  x(0,1,0,2,2,0)(0) - xNG(0,1,0,2,2,0)  = 0
 c6:  x(0,1,0,2,5,3)(0) - xNG(0,1,0,2,5,3)  = 0
 c7:  x(0,1,0,0,3,0)(1) - xPB(0,1,0,0,3,0)(0) - xPB(0,1,0,0,3,0)(1)
      - xPB(0,1,0,0,3,0)(2) - xPB(0,1,0,0,3,0)(3) - xPB(0,1,0,0,3,0)(4)  = 0
 c8:  x(0,1,0,2,2,0)(1) - xPB(0,1,0,2,2,0)(0) - xPB(0,1,0,2,2,0)(1)
      - xPB(0,1,0,2,2,0)(2) - xPB(0,1,0,2,2,0)(3) - xPB(0,1,0,2,2,0)(4)  = 0
 c9:  x(0,1,0,2,5,3)(1) - xPB(0,1,0,2,5,3)(0) - xPB(0,1,0,2,5,3)(1)
      - xPB(0,1,0,2,5,3)(2) - xPB(0,1,0,2,5,3)(3) - xPB(0,1,0,2,5,3)(4)  = 0
 c10: x(0,1,0,0,3,0)(2) - xGS(0,1,0,0,3,0)(0) - xGS(0,1,0,0,3,0)(1)
      - xGS(0,1,0,0,3,0)(2) - xGS(0,1,0,0,3,0)(3) - xGS(0,1,0,0,3,0)(4)  = 0
 c11: x(0,1,0,2,2,0)(2) - xGS(0,1,0,2,2,0)(0) - xGS(0,1,0,2,2,0)(1)
      - xGS(0,1,0,2,2,0)(2) - xGS(0,1,0,2,2,0)(3) - xGS(0,1,0,2,2,0)(4)  = 0
 c12: x(0,1,0,2,5,3)(2) - xGS(0,1,0,2,5,3)(0) - xGS(0,1,0,2,5,3)(1)
      - xGS(0,1,0,2,5,3)(2) - xGS(0,1,0,2,5,3)(3) - xGS(0,1,0,2,5,3)(4)  = 0
 c13: x(0,1,0,0,3,0)(3) - xEAe(0,1,0,0,3,0)(1) - xEAe'(0,1,0,0,3,0)(1)(3)
      - xEAe'(0,1,0,0,3,0)(2)(3) - xEAe'(0,1,0,0,3,0)(3)(3)  = 0
 c14: x(0,1,0,2,2,0)(3) - xEAe(0,1,0,2,2,0)(1) - xEAe'(0,1,0,2,2,0)(1)(2)
      - xEAe'(0,1,0,2,2,0)(2)(2) - xEAe'(0,1,0,2,2,0)(3)(2)  = 0
 c15: x(0,1,0,2,5,3)(3) - xEAe(0,1,0,2,5,3)(1) - xEAe'(0,1,0,2,5,3)(1)(5)
      - xEAe'(0,1,0,2,5,3)(2)(5) - xEAe'(0,1,0,2,5,3)(3)(5)  = 0
 c16: xEAe(0,1,0,0,3,0)(3)  = 0
 c17: xEAe(0,1,0,2,2,0)(3)  = 0
 c18: xEAe(0,1,0,2,5,3)(3)  = 0
 c19: xEAe(0,1,0,0,3,0)(1) - xEAe(0,1,0,0,3,0)(2)  = 0
 c20: xEAe(0,1,0,0,3,0)(2) - xEAe(0,1,0,0,3,0)(3)  = 0
 c21: xEAe(0,1,0,2,2,0)(1) - xEAe(0,1,0,2,2,0)(2)  = 0
 c22: xEAe(0,1,0,2,2,0)(2) - xEAe(0,1,0,2,2,0)(3)  = 0
 c23: xEAe(0,1,0,2,5,3)(1) - xEAe(0,1,0,2,5,3)(2)  = 0
 c24: xEAe(0,1,0,2,5,3)(2) - xEAe(0,1,0,2,5,3)(3)  = 0
 c25: xEAr(0,1,0,0,0)(2)(1) - xEAr(0,1,0,0,0)(3)(2)  = 0
 c26: xEAr(0,1,0,0,1)(2)(1) - xEAr(0,1,0,0,1)(3)(2)  = 0
 c27: xEAr(0,1,0,0,2)(2)(1) - xEAr(0,1,0,0,2)(3)(2)  = 0
 c28: xEAr(0,1,0,0,3)(2)(1) - xEAr(0,1,0,0,3)(3)(2)  = 0
 c29: xEAr(0,1,0,0,4)(2)(1) - xEAr(0,1,0,0,4)(3)(2)  = 0
 c30: xEAr(0,1,0,0,5)(2)(1) - xEAr(0,1,0,0,5)(3)(2)  = 0
 c31: xEAr(0,1,0,0,6)(2)(1) - xEAr(0,1,0,0,6)(3)(2)  = 0
 c32: xEAr(0,1,0,0,7)(2)(1) - xEAr(0,1,0,0,7)(3)(2)  = 0
 c33: xEAr(0,1,0,2,0)(2)(1) - xEAr(0,1,0,2,0)(3)(2)  = 0
 c34: xEAr(0,1,0,2,1)(2)(1) - xEAr(0,1,0,2,1)(3)(2)  = 0
 c35: xEAr(0,1,0,2,2)(2)(1) - xEAr(0,1,0,2,2)(3)(2)  = 0
 c36: xEAr(0,1,0,2,3)(2)(1) - xEAr(0,1,0,2,3)(3)(2)  = 0
 c37: xEAr(0,1,0,2,4)(2)(1) - xEAr(0,1,0,2,4)(3)(2)  = 0
 c38: xEAr(0,1,0,2,5)(2)(1) - xEAr(0,1,0,2,5)(3)(2)  = 0
 c39: xEAr(0,1,0,2,6)(2)(1) - xEAr(0,1,0,2,6)(3)(2)  = 0
 c40: xEAr(0,1,0,2,7)(2)(1) - xEAr(0,1,0,2,7)(3)(2)  = 0
 c41: - xEAr(0,1,0,0,0)(2)(1) - xEAr'(0,1,0,0,0)(2)(1)(0)
      - xEAr'(0,1,0,0,0)(3)(2)(0)  = 0
 c42: - xEAr(0,1,0,0,1)(2)(1) - xEAr'(0,1,0,0,1)(2)(1)(1)
      - xEAr'(0,1,0,0,1)(3)(2)(1)  = 0
 c43: - xEAr(0,1,0,0,2)(2)(1) - xEAr'(0,1,0,0,2)(2)(1)(2)
      - xEAr'(0,1,0,0,2)(3)(2)(2)  = 0
 c44: xEAe'(0,1,0,0,3,0)(1)(3) - xEAr(0,1,0,0,3)(2)(1)
      - xEAr'(0,1,0,0,3)(2)(1)(3) - xEAr'(0,1,0,0,3)(3)(2)(3)  = 0
 c45: - xEAr(0,1,0,0,4)(2)(1) - xEAr'(0,1,0,0,4)(2)(1)(4)
      - xEAr'(0,1,0,0,4)(3)(2)(4)  = 0
 c46: - xEAr(0,1,0,0,5)(2)(1) - xEAr'(0,1,0,0,5)(2)(1)(5)
      - xEAr'(0,1,0,0,5)(3)(2)(5)  = 0
 c47: - xEAr(0,1,0,0,6)(2)(1) - xEAr'(0,1,0,0,6)(2)(1)(6)
      - xEAr'(0,1,0,0,6)(3)(2)(6)  = 0
 c48: - xEAr(0,1,0,0,7)(2)(1) - xEAr'(0,1,0,0,7)(2)(1)(7)
      - xEAr'(0,1,0,0,7)(3)(2)(7)  = 0
 c49: - xEAr(0,1,0,0,0)(3)(1) + xEAr'(0,1,0,0,0)(2)(1)(0)
      - xEAr'(0,1,0,0,0)(3)(1)(0)  = 0
 c50: - xEAr(0,1,0,0,1)(3)(1) + xEAr'(0,1,0,0,1)(2)(1)(1)
      - xEAr'(0,1,0,0,1)(3)(1)(1)  = 0
 c51: - xEAr(0,1,0,0,2)(3)(1) + xEAr'(0,1,0,0,2)(2)(1)(2)
      - xEAr'(0,1,0,0,2)(3)(1)(2)  = 0
 c52: xEAe'(0,1,0,0,3,0)(2)(3) - xEAr(0,1,0,0,3)(3)(1)
      + xEAr'(0,1,0,0,3)(2)(1)(3) - xEAr'(0,1,0,0,3)(3)(1)(3)  = 0
 c53: - xEAr(0,1,0,0,4)(3)(1) + xEAr'(0,1,0,0,4)(2)(1)(4)
      - xEAr'(0,1,0,0,4)(3)(1)(4)  = 0
 c54: - xEAr(0,1,0,0,5)(3)(1) + xEAr'(0,1,0,0,5)(2)(1)(5)
      - xEAr'(0,1,0,0,5)(3)(1)(5)  = 0
 c55: - xEAr(0,1,0,0,6)(3)(1) + xEAr'(0,1,0,0,6)(2)(1)(6)
      - xEAr'(0,1,0,0,6)(3)(1)(6)  = 0
 c56: - xEAr(0,1,0,0,7)(3)(1) + xEAr'(0,1,0,0,7)(2)(1)(7)
      - xEAr'(0,1,0,0,7)(3)(1)(7)  = 0
 c57: - xEAr(0,1,0,2,0)(2)(1) - xEAr'(0,1,0,2,0)(2)(1)(0)
      - xEAr'(0,1,0,2,0)(3)(2)(0)  = 0
 c58: - xEAr(0,1,0,2,1)(2)(1) - xEAr'(0,1,0,2,1)(2)(1)(1)
      - xEAr'(0,1,0,2,1)(3)(2)(1)  = 0
 c59: xEAe'(0,1,0,2,2,0)(1)(2) - xEAr(0,1,0,2,2)(2)(1)
      - xEAr'(0,1,0,2,2)(2)(1)(2) - xEAr'(0,1,0,2,2)(3)(2)(2)  = 0
 c60: - xEAr(0,1,0,2,3)(2)(1) - xEAr'(0,1,0,2,3)(2)(1)(3)
      - xEAr'(0,1,0,2,3)(3)(2)(3)  = 0
 c61: - xEAr(0,1,0,2,4)(2)(1) - xEAr'(0,1,0,2,4)(2)(1)(4)
      - xEAr'(0,1,0,2,4)(3)(2)(4)  = 0
 c62: xEAe'(0,1,0,2,5,3)(1)(5) - xEAr(0,1,0,2,5)(2)(1)
      - xEAr'(0,1,0,2,5)(2)(1)(5) - xEAr'(0,1,0,2,5)(3)(2)(5)  = 0
 c63: - xEAr(0,1,0,2,6)(2)(1) - xEAr'(0,1,0,2,6)(2)(1)(6)
      - xEAr'(0,1,0,2,6)(3)(2)(6)  = 0
 c64: - xEAr(0,1,0,2,7)(2)(1) - xEAr'(0,1,0,2,7)(2)(1)(7)
      - xEAr'(0,1,0,2,7)(3)(2)(7)  = 0
 c65: - xEAr(0,1,0,2,0)(3)(1) + xEAr'(0,1,0,2,0)(2)(1)(0)
      - xEAr'(0,1,0,2,0)(3)(1)(0)  = 0
 c66: - xEAr(0,1,0,2,1)(3)(1) + xEAr'(0,1,0,2,1)(2)(1)(1)
      - xEAr'(0,1,0,2,1)(3)(1)(1)  = 0
 c67: xEAe'(0,1,0,2,2,0)(2)(2) - xEAr(0,1,0,2,2)(3)(1)
      + xEAr'(0,1,0,2,2)(2)(1)(2) - xEAr'(0,1,0,2,2)(3)(1)(2)  = 0
 c68: - xEAr(0,1,0,2,3)(3)(1) + xEAr'(0,1,0,2,3)(2)(1)(3)
      - xEAr'(0,1,0,2,3)(3)(1)(3)  = 0
 c69: - xEAr(0,1,0,2,4)(3)(1) + xEAr'(0,1,0,2,4)(2)(1)(4)
      - xEAr'(0,1,0,2,4)(3)(1)(4)  = 0
 c70: xEAe'(0,1,0,2,5,3)(2)(5) - xEAr(0,1,0,2,5)(3)(1)
      + xEAr'(0,1,0,2,5)(2)(1)(5) - xEAr'(0,1,0,2,5)(3)(1)(5)  = 0
 c71: - xEAr(0,1,0,2,6)(3)(1) + xEAr'(0,1,0,2,6)(2)(1)(6)
      - xEAr'(0,1,0,2,6)(3)(1)(6)  = 0
 c72: - xEAr(0,1,0,2,7)(3)(1) + xEAr'(0,1,0,2,7)(2)(1)(7)
      - xEAr'(0,1,0,2,7)(3)(1)(7)  = 0
 c73: - z(0) + 3 xNG(0,1,0,0,3,0) + 3 xNG(0,1,0,2,2,0) + 3 xNG(0,1,0,2,5,3)
      + 3 xPB(0,1,0,0,3,0)(0) + 3 xPB(0,1,0,0,3,0)(1) + 3 xPB(0,1,0,0,3,0)(2)
      + 3 xPB(0,1,0,0,3,0)(3) + 3 xPB(0,1,0,0,3,0)(4) + 3 xPB(0,1,0,2,2,0)(0)
      + 3 xPB(0,1,0,2,2,0)(1) + 3 xPB(0,1,0,2,2,0)(2) + 3 xPB(0,1,0,2,2,0)(3)
      + 3 xPB(0,1,0,2,2,0)(4) + 3 xPB(0,1,0,2,5,3)(0) + 3 xPB(0,1,0,2,5,3)(1)
      + 3 xPB(0,1,0,2,5,3)(2) + 3 xPB(0,1,0,2,5,3)(3) + 3 xPB(0,1,0,2,5,3)(4)
      + 3 xGS(0,1,0,0,3,0)(0) + 3 xGS(0,1,0,0,3,0)(1) + 3 xGS(0,1,0,0,3,0)(2)
      + 3 xGS(0,1,0,0,3,0)(3) + 3 xGS(0,1,0,0,3,0)(4) + 3 xGS(0,1,0,2,2,0)(0)
      + 3 xGS(0,1,0,2,2,0)(1) + 3 xGS(0,1,0,2,2,0)(2) + 3 xGS(0,1,0,2,2,0)(3)
      + 3 xGS(0,1,0,2,2,0)(4) + 3 xGS(0,1,0,2,5,3)(0) + 3 xGS(0,1,0,2,5,3)(1)
      + 3 xGS(0,1,0,2,5,3)(2) + 3 xGS(0,1,0,2,5,3)(3) + 3 xGS(0,1,0,2,5,3)(4)
       = 0
Bounds
      z(0) = 0
End
